certificates/rado_a10_c86_N25.drat
7 10 -25 0
10 -25 0
d 7 10 -25 0
23 -25 0
-10 -25 0
d -11 -10 -25 0
-25 0
-23 0
7 0
10 0
-24 0
-21 0
9 0
-5 0
-13 0
-3 0
-6 0
-11 0
-14 0
8 0
1 0
-2 0
0
